certificates/rado_a11_c79_N21.cnf
c Rad2 upper bound instance: x1 + 11*x2 - x3 = 79, interval [1,21]
p cnf 21 80
1 8 10 0
-1 -8 -10 0
1 9 21 0
-1 -9 -21 0
2 8 11 0
-2 -8 -11 0
1 3 7 0
-1 -3 -7 0
3 8 12 0
-3 -8 -12 0
2 4 7 0
-2 -4 -7 0
4 8 13 0
-4 -8 -13 0
3 5 7 0
-3 -5 -7 0
5 8 14 0
-5 -8 -14 0
4 6 7 0
-4 -6 -7 0
6 8 15 0
-6 -8 -15 0
5 7 0
-5 -7 0
7 8 16 0
-7 -8 -16 0
6 7 8 0
-6 -7 -8 0
8 17 0
-8 -17 0
7 9 0
-7 -9 0
8 9 18 0
-8 -9 -18 0
7 8 10 0
-7 -8 -10 0
8 10 19 0
-8 -10 -19 0
7 9 11 0
-7 -9 -11 0
8 11 20 0
-8 -11 -20 0
7 10 12 0
-7 -10 -12 0
8 12 21 0
-8 -12 -21 0
7 11 13 0
-7 -11 -13 0
1 6 14 0
-1 -6 -14 0
7 12 14 0
-7 -12 -14 0
2 6 15 0
-2 -6 -15 0
7 13 15 0
-7 -13 -15 0
3 6 16 0
-3 -6 -16 0
7 14 16 0
-7 -14 -16 0
4 6 17 0
-4 -6 -17 0
7 15 17 0
-7 -15 -17 0
5 6 18 0
-5 -6 -18 0
7 16 18 0
-7 -16 -18 0
6 19 0
-6 -19 0
7 17 19 0
-7 -17 -19 0
6 7 20 0
-6 -7 -20 0
7 18 20 0
-7 -18 -20 0
6 8 21 0
-6 -8 -21 0
7 19 21 0
-7 -19 -21 0
