certificates/rado_a11_c79_N21.drat
-19 -20 -21 0
-20 -21 0
d -19 -20 -21 0
-6 -21 0
-21 0
6 20 0
d 6 7 20 0
-6 0
19 0
20 0
8 0
-17 0
-10 0
-11 0
4 0
-13 0
7 0
-5 0
-9 0
-18 0
-16 0
-2 0
0
